%mem=48GB
%nproc=12
#p opt=(calcfc,noraman) freq=noraman oniom(b97d/genecp:amber=hardfirst) geom=connectivity integral=acc2e=11 scf=xqc

Title CDrd Required

8 1 0 1 0 1
 Pd-M2-0.063035   0  -11.75533900    7.08468700   -0.16645700 L
 N-Z2-0.077769    0  -13.40996500    6.68310000    0.75440900 L
 N-Z2-0.077769    0   -9.53103200    1.82990200    8.77104200 L
 N-Z3--0.003486   0  -12.00934900    9.10361800    0.57336400 L
 N-Z4--0.003486   0  -12.07576400    5.26007500   -1.31024400 L
 N-Z3--0.003486   0   -7.69363200    3.61212100    9.94298800 L
 N-Z4--0.003486   0   -7.51653900   -0.06543100    8.03584500 L
 C-CT--0.064353   0  -12.86684400    5.95729300    1.86903700 L
 C-CT--0.064353   0   -9.98660700    2.46026500    7.50977900 L
 C-CT--0.090978   0  -14.14793100    7.96665900    1.00875000 L
 C-CT--0.090978   0  -14.27780500    5.83168600   -0.17750900 L
 C-CT--0.090978   0   -9.97274100    2.57948600    9.95051200 L
 C-CT--0.090978   0   -9.78487300    0.38008300    8.77940900 L
 C-CT--0.047515   0  -13.19991600    8.98920800    1.49396300 L
 C-CT--0.047515   0  -13.39369200    4.69567200   -0.77008800 L
 C-CT--0.047515   0   -9.17044000    3.92412400   10.07305700 L
 C-CT--0.047515   0   -8.96827200   -0.38433300    7.81498800 L
 C-CT--0.082007   0  -12.25041800   10.10506200   -0.55565700 L
 C-CT--0.082007   0  -12.28132200    5.77059300   -2.71721300 L
 C-CT--0.082007   0   -7.04307200    3.16330600   11.19484200 L
 C-CT--0.082007   0   -6.97621800   -0.90842000    9.11911000 L
 C-CT--0.087715   0  -10.82650400    9.63078400    1.41332100 L
 C-CT--0.087715   0  -10.81649100    4.49097000   -1.36674600 L
 C-CT--0.087715   0   -6.85020300    4.75311700    9.37892700 L
 C-CT--0.087715   0   -6.64756500   -0.22489100    6.75133200 L
 C-CA-0.023472    0  -10.42943800    8.82136300    2.60919800 L
 C-CD-0.023472    0  -10.22986700    3.74524300   -0.17376300 L
 C-CA-0.023472    0   -7.35805400    5.47625200    8.17120400 L
 C-CA-0.023472    0   -7.33030800    0.33015600    5.51744900 L
 C-CD--0.105503   0  -10.89673700    9.11398300    3.97378200 L
 C-CD--0.105503   0  -10.16079600    2.35459400   -0.22045700 L
 C-CD--0.105503   0   -7.17066500    5.09461700    6.86627100 L
 C-CD--0.105503   0   -8.01027500   -0.51010700    4.57071300 L
 C-CD--0.100707   0  -10.41910100    8.40919100    5.08540400 L
 C-CD--0.100707   0   -9.60730500    1.60668700    0.91561900 L
 C-CD--0.100707   0   -7.79270200    5.72926500    5.78426800 L
 C-CD--0.100707   0   -8.53347100    0.10682600    3.41987200 L
 C-CA-0.006078    0   -9.37023200    7.53244200    4.94176200 L
 C-CA-0.006078    0   -9.13309200    2.32086600    2.03109400 L
 C-CA-0.006078    0   -8.60787200    6.89289000    6.05698200 L
 C-CA-0.006078    0   -8.42295700    1.50702700    3.16635400 L
 C-CD--0.100707   0   -8.88018500    7.22790200    3.62271400 L
 C-CD--0.100707   0   -9.29259500    3.76915800    2.10350800 L
 C-CD--0.100707   0   -8.69039200    7.36984800    7.31431900 L
 C-CD--0.100707   0   -7.65408300    2.31931900    4.13639500 L
 C-CD--0.105503   0   -9.36360000    7.88914500    2.47293300 L
 C-CD--0.105503   0   -9.87164500    4.39157500    1.00919300 L
 C-CD--0.105503   0   -8.06770400    6.67966800    8.36116800 L
 C-CD--0.105503   0   -7.08755600    1.73038500    5.27555400 L
 HC-HC-0.097487     0   -6.69460700    4.16505300    6.57049600 L
 HC-HC-0.097487     0   -8.06826700   -1.59081100    4.65024600 L
 HC-HC-0.097487     0  -10.61546400    1.86331200   -1.07562300 L
 HC-HC-0.097487     0  -11.61798600    9.92368300    4.04678100 L
 HC-HC-0.111671     0   -7.49199000    5.32662000    4.82082300 L
 HC-HC-0.111671     0   -9.02744700   -0.60338600    2.76337800 L
 HC-HC-0.111671     0   -9.57850600    0.52092700    0.89278100 L
 HC-HC-0.111671     0  -10.89221800    8.50865000    6.05796200 L
 HC-HC-0.111671     0   -9.32099400    8.23558200    7.49130000 L
 HC-HC-0.111671     0   -7.44210500    3.35779100    3.89805700 L
 HC-HC-0.111671     0   -8.93351100    4.27830300    2.99252000 L
 HC-HC-0.111671     0   -7.97417600    6.64118100    3.50812100 L
 HC-HC-0.097487     0   -8.41418700    6.98344500    9.34408600 L
 HC-HC-0.097487     0   -6.41058400    2.25809900    5.94142500 L
 HC-HC-0.097487     0  -10.09386700    5.43797400    1.19576600 L
 HC-HC-0.097487     0   -8.90652300    7.59623200    1.53259100 L
 HC-HC-0.086883     0   -5.89477200   -1.02144400    9.26716000 L
 HC-HC-0.086883     0   -7.56839100    2.22202900   11.40116600 L
 HC-HC-0.086883     0  -12.91263700    5.09454200   -3.30698300 L
 HC-HC-0.086883     0  -12.81492100   10.94250200   -0.12555100 L
 HC-HC-0.086883     0   -7.32271400   -1.93635500    8.95667200 L
 HC-HC-0.086883     0   -5.95946800    3.06815800   11.05423700 L
 HC-HC-0.086883     0  -12.74517300    6.76381700   -2.73137100 L
 HC-HC-0.086883     0  -12.85880900    9.64810000   -1.34533800 L
 HC-HC-0.086883     0   -7.39847500   -0.68699600   10.10714700 L
 HC-HC-0.086883     0   -7.25319500    3.84470900   12.02854200 L
 HC-HC-0.086883     0  -11.41336600    6.03695000   -3.33422900 L
 HC-HC-0.086883     0  -11.38863700   10.58436900   -1.03605900 L
 HC-HC-0.092382     0  -11.06709000   10.67734400    1.63616700 L
 HC-HC-0.092382     0   -9.90322200    9.66897100    0.82221500 L
 HC-HC-0.100472     0  -14.96350100    7.75606100    1.71103900 L
 HC-HC-0.100472     0  -14.51606200    8.31788800    0.03712300 L
 HC-HC-0.100472     0  -14.90656800    6.26025900   -0.96618700 L
 HC-HC-0.100472     0  -15.09237400    5.26558100    0.28966000 L
 HC-HC-0.098688     0  -12.90638600    4.19594600    0.07614200 L
 HC-HC-0.098688     0  -13.97987700    3.96017800   -1.33475900 L
 HC-HC-0.092382     0  -10.03795800    5.11796600   -1.81846600 L
 HC-HC-0.092382     0  -11.06553400    3.74261000   -2.12912200 L
 HC-HC-0.098688     0  -13.81264800    9.89605700    1.56741100 L
 HC-HC-0.098688     0  -13.01003500    8.68011500    2.52954000 L
 HC-HC-0.098688     0   -9.46063500    4.59140000    9.25288000 L
 HC-HC-0.098688     0   -9.28549100   -0.12438300    6.79836100 L
 HC-HC-0.098688     0   -9.44417800    4.48054600   10.97807300 L
 HC-HC-0.098688     0   -9.24911600   -1.44571100    7.81890400 L
 HC-HC-0.092382     0   -6.59651800   -1.30025200    6.53804500 L
 HC-HC-0.092382     0   -6.65403500    5.45083100   10.20121400 L
 HC-HC-0.092382     0   -5.59309400    0.06743200    6.82487300 L
 HC-HC-0.092382     0   -5.87304200    4.36567500    9.06657200 L
 HC-HC-0.100472     0  -10.85336000    0.16673800    8.65116800 L
 HC-HC-0.100472     0  -11.00396800    2.93251800    9.83115200 L
 HC-HC-0.100472     0   -9.63113500   -0.00877700    9.79353800 L
 HC-HC-0.100472     0   -9.95233300    1.87554700   10.79117900 L
 HC-HC-0.061293     0  -13.72507200    5.39248500    2.25347000 L
 HC-HC-0.061293     0  -12.05914000    5.22781200    1.72928900 L
 HC-HC-0.061293     0  -11.05076300    2.71512900    7.59779600 L
 HC-HC-0.061293     0   -9.89960700    1.93243700    6.55238000 L
 HC-HC-0.061293     0  -12.54920000    6.58831300    2.70915100 L
 HC-HC-0.061293     0   -9.46030800    3.37396300    7.20537600 L
 Pd-M2-0.063035   0   -7.43193200    1.90144700    8.68904800 L
 N-Y1--0.242156   0    3.79198900   -4.24103600    5.61861800 H
 C-CF--0.067422   0    4.11951500   -6.38137600    4.41380800 H
 C-CC-0.089160    0    2.73820000   -6.66535400    4.40842000 H
 C-CC-0.089160    0    4.53297300   -5.21532700    5.13897300 H
 C-CA-0.031499    0    5.15067800   -7.27546600    3.76983100 L H-HC 110   0.0000
 C-CD--0.076236   0    5.64257400   -7.03435600    2.42484400 L
 C-CD--0.152657   0    6.79401300   -7.66672700    1.99741700 L
 C-CA--0.053911   0    7.48249400   -8.62934400    2.75319600 L
 C-CD--0.152657   0    7.05587700   -8.76305300    4.13420400 L
 C-CD--0.076236   0    5.91098200   -8.12632000    4.56203000 L
 C-C-0.787597     0    8.71227700   -8.99425700    2.37511100 L
 O-O--0.581777    0    9.44601300   -9.71600500    3.04855100 L
 O-Z1--0.581777   0    9.25724300   -8.52639100    1.43037600 L
 N-Y3--0.242156   0    1.86492500   -2.42696600    6.52545300 H
 N-Y2--0.242156   0    1.71430600   -5.91793400    4.80973600 H
 N-Y4--0.242156   0   -0.11940000   -3.99666700    5.66775400 H
 C-C-0.787597     0   -4.58315200    1.37143900    9.23121200 L
 C-C-0.787597     0   -4.91912500   -9.26440000    2.44768100 L
 C-C-0.787597     0    8.74552700    1.52952200    7.17880800 L
 C-CD--0.076236   0   -1.91864000   -1.35235900    8.83161400 L
 C-CD--0.076236   0   -2.25399400   -7.87632300    4.63887900 L
 C-CD--0.076236   0    6.48466200   -1.48263500    7.57943000 L
 C-CD--0.152657   0   -2.87505300   -0.43730600    9.48174900 L
 C-CD--0.152657   0   -3.31573200   -8.71406800    4.34162400 L
 C-CD--0.152657   0    7.56008300   -0.56705000    7.84136200 L
 C-CA--0.053911   0   -3.42833300    0.62221900    8.83038600 L
 C-CA--0.053911   0   -3.72935500   -8.59695200    2.92586500 L
 C-CA--0.053911   0    7.62671100    0.67752000    7.18668900 L
 C-CD--0.152657   0   -2.95079600    0.90674100    7.56709500 L
 C-CD--0.152657   0   -3.08198100   -7.77648000    1.98311500 L
 C-CD--0.152657   0    6.56856100    0.94275700    6.35041300 L
 C-CD--0.076236   0   -1.90312700    0.21756200    6.92094500 L
 C-CD--0.076236   0   -2.03432200   -6.98407000    2.32270900 L
 C-CD--0.076236   0    5.45406300    0.14180600    6.17532000 L
 C-CA-0.031499    0   -1.49141600   -0.92923700    7.53721600 L H-HC 152   0.0000
 C-CA-0.031499    0   -1.71993400   -6.95572500    3.71029600 L H-HC 153   0.0000
 C-CA-0.031499    0    5.45760700   -1.05593500    6.73615400 L H-HC 154   0.0000
 C-CD-0.089160    0    0.86764300   -1.66243300    6.97498700 H
 C-CD-0.089160    0    0.62567000   -6.46143300    4.21511100 H
 C-CD-0.089160    0   -1.02166100   -4.82346600    4.93355800 H
 C-CC-0.089160    0   -0.88094200   -2.99347700    6.12594500 H
 C-CD-0.089160    0    4.68154400   -3.27786200    6.07502000 H
 C-CC-0.089160    0    2.95135000   -1.65189600    6.70199700 H
 C-CF--0.067422   0   -0.53260900   -1.84380700    6.86758600 H
 C-CF--0.067422   0   -0.66484600   -5.99183600    4.27650400 H
 C-CF--0.067422   0    4.25642400   -2.05387900    6.51972700 H
 O-Z1--0.581777   0   -5.33743700    1.90358000    8.40871000 L
 O-Z1--0.581777   0   -5.75199300   -8.73698600    1.70492400 L
 O-Z1--0.581777   0    8.77224800    2.60162700    6.52275200 L
 O-O--0.581777    0   -4.97858700    1.11996800   10.35813300 L
 O-O--0.581777    0   -5.37821100  -10.11850500    3.23677000 L
 O-O--0.581777    0    9.74361700    1.18237000    7.80269600 L
 C-CC--0.140291   0    5.94985000   -4.86568900    5.17169600 H
 C-CD--0.140291   0    1.24613600   -0.32651900    7.31340100 H
 C-CC--0.140291   0    2.64163300   -0.38760800    7.22717500 H
 C-CD--0.140291   0    6.08990400   -3.54548500    5.75000400 H
 C-CC--0.140291   0   -2.27056800   -3.25905100    5.88002800 H
 C-CD--0.140291   0    2.42446300   -7.85300000    3.74277200 H
 C-CC--0.140291   0    1.04190700   -7.67540800    3.48066000 H
 C-CD--0.140291   0   -2.40441600   -4.40393100    5.05491500 H
 HC-HC-0.109331     0    4.83249700    0.41049600    5.32733800 L
 HC-HC-0.109331     0   -1.57143900   -6.25405500    1.66519900 L
 HC-HC-0.109331     0    5.16760400   -6.28844200    1.79516800 L
 HC-HC-0.109331     0   -1.29567800    0.57160100    6.09334700 L
 HC-HC-0.142309     0    6.61984000    1.87228500    5.79032400 L
 HC-HC-0.142309     0   -3.39085400   -7.86763900    0.94643900 L
 HC-HC-0.142309     0    7.20683000   -7.63299000    0.99357200 L
 HC-HC-0.142309     0   -3.17861400    1.83715500    7.05539400 L
 HC-HC-0.142309     0    8.18960900   -0.64508000    8.72249600 L
 HC-HC-0.142309     0   -3.81842200   -9.28727700    5.11560600 L
 HC-HC-0.142309     0    7.49651200   -9.40396600    4.89333300 L
 HC-HC-0.142309     0   -3.22824000   -0.64659500   10.48717600 L
 HC-HC-0.109331     0    6.21075800   -2.36787100    8.14564800 L
 HC-HC-0.109331     0   -1.94810600   -7.95216800    5.67817600 L
 HC-HC-0.109331     0    5.75563600   -8.17414200    5.63556400 L
 HC-HC-0.109331     0   -1.58366500   -2.26593600    9.31426300 L
 HC-HC-0.123049     0    6.98317700   -2.93987200    5.84384000 H
 HC-HC-0.123049     0    6.77192500   -5.45071400    4.77568500 H
 HC-HC-0.123049     0   -3.27379700   -4.92174500    4.66682500 H
 HC-HC-0.123049     0   -3.14017000   -2.70366400    6.20898900 H
 HC-HC-0.123049     0    0.73077400    0.62717800    7.30542800 H
 HC-HC-0.123049     0    3.25431100    0.47837700    7.44931500 H
 HC-HC-0.123049     0    3.02895900   -8.73021200    3.54793700 H
 HC-HC-0.123049     0    0.41823500   -8.36116700    2.91933900 H
 Zn-M1-0.493324   0    1.83420100   -4.18324500    5.64843600 H
 Pd-M2-0.063035   0   -9.86563500   -3.87964300   -7.46377000 L
 N-Z2-0.077769    0  -11.71625400   -4.64530600   -6.86747100 L
 N-Z2-0.077769    0   -9.68604800   -8.47551200    1.99151200 L
 N-Z3--0.003486   0  -10.65812500   -1.96796100   -6.44263500 L
 N-Z4--0.003486   0   -9.62949200   -5.58126900   -8.74340000 L
 N-Z3--0.003486   0   -7.76377400   -7.26027200    3.49436900 L
 N-Z4--0.003486   0   -8.11014800  -10.68117700    1.08949700 L
 C-CT--0.064353   0  -11.51544900   -5.45340900   -5.61040700 L
 C-CT--0.064353   0   -9.99286100   -7.39584200    0.97767500 L
 C-CT--0.090978   0  -12.72061800   -3.46039900   -6.78515100 L
 C-CT--0.090978   0  -11.99831600   -5.59196100   -7.98081600 L
 C-CT--0.090978   0  -10.14264900   -8.01772200    3.34729900 L
 C-CT--0.090978   0  -10.31226500   -9.71069100    1.54638700 L
 C-CT--0.047515   0  -12.08870600   -2.31143400   -5.97433600 L
 C-CT--0.047515   0  -10.89012700   -6.43139000   -8.43526000 L
 C-CT--0.047515   0   -9.16611100   -6.92570100    3.78064600 L
 C-CT--0.047515   0   -9.44795300  -10.45091600    0.46987900 L
 C-CT--0.082007   0  -10.87785100   -0.88442800   -7.43809100 L
 C-CT--0.082007   0   -9.81843000   -5.14786400  -10.06852600 L
 C-CT--0.082007   0   -7.02034400   -7.74325600    4.66947200 L
 C-CT--0.082007   0   -8.10969600  -11.68843800    2.15020100 L
 C-CT--0.087715   0   -9.64182900   -1.40475000   -5.46095900 L
 C-CT--0.087715   0   -8.30251000   -6.10074900   -8.53142500 L
 C-CT--0.087715   0   -6.97259600   -5.97862100    3.03895100 L
 C-CT--0.087715   0   -6.99607100  -11.02560000    0.11878000 L
 C-CA-0.023472    0   -9.44630400   -2.27506000   -4.23168400 L
 C-CA-0.023472    0   -8.04885800   -6.89071000   -7.27916800 L
 C-CA-0.023472    0   -7.35051500   -5.36775200    1.65460100 L
 C-CA-0.023472    0   -6.96354600  -10.33606200   -1.14704600 L
 C-CD--0.105503   0   -9.06673900   -1.57951800   -3.02195600 L
 C-CD--0.105503   0   -8.47192100   -8.20980300   -7.14045000 L
 C-CD--0.105503   0   -7.00996800   -5.96388700    0.43635400 L
 C-CD--0.105503   0   -6.40197600   -9.07781500   -1.41579300 L
 C-CD--0.100707   0   -8.93284000   -2.26905000   -1.82371900 L
 C-CD--0.100707   0   -8.07487700   -9.02866600   -6.13686400 L
 C-CD--0.100707   0   -7.69968100   -5.47213000   -0.65535000 L
 C-CD--0.100707   0   -6.38332000   -8.48582100   -2.66091400 L
 C-CA-0.006078    0   -8.91059700   -3.67303100   -1.78877700 L
 C-CA-0.006078    0   -7.22896200   -8.40974000   -5.05792600 L
 C-CA-0.006078    0   -8.63690900   -4.39000800   -0.51762900 L
 C-CA-0.006078    0   -7.08220500   -9.03867400   -3.66024400 L
 C-CD--0.100707   0   -9.13848200   -4.35934000   -3.08060100 L
 C-CD--0.100707   0   -6.67424400   -7.09830700   -5.24935300 L
 C-CD--0.100707   0   -8.76423800   -3.70324700    0.70955600 L
 C-CD--0.100707   0   -7.71262500  -10.32956900   -3.50709800 L
 C-CD--0.105503   0   -9.26793400   -3.65656200   -4.32869600 L
 C-CD--0.105503   0   -7.00850500   -6.44966200   -6.41914200 L
 C-CD--0.105503   0   -8.19808100   -4.34099400    1.82955600 L
 C-CD--0.105503   0   -7.66884000  -10.91742300   -2.25097600 L
 HC-HC-0.097487     0   -6.31108800   -6.79107600    0.35745600 L
 HC-HC-0.097487     0   -5.84656300   -8.32651500   -0.86266500 L
 HC-HC-0.097487     0   -9.11300800   -8.56676500   -7.94089800 L
 HC-HC-0.097487     0   -9.00496700   -0.50299700   -2.89204400 L
 HC-HC-0.111671     0   -7.58330900   -5.85640800   -1.66385500 L
 HC-HC-0.111671     0   -5.87552300   -7.52624600   -2.68960400 L
 HC-HC-0.111671     0   -8.55297900  -10.00378500   -6.14451500 L
 HC-HC-0.111671     0   -8.78356000   -1.70065700   -0.91134500 L
 HC-HC-0.111671     0   -9.54864600   -2.95874100    0.81678300 L
 HC-HC-0.111671     0   -8.23938100  -10.90290900   -4.26537800 L
 HC-HC-0.111671     0   -5.98515500   -6.53776000   -4.62488500 L
 HC-HC-0.111671     0   -9.11834300   -5.43595000   -3.21943600 L
 HC-HC-0.097487     0   -8.47052900   -3.95217600    2.80649100 L
 HC-HC-0.097487     0   -8.25229800  -11.83239000   -2.21359400 L
 HC-HC-0.097487     0   -6.53495100   -5.52764500   -6.74653800 L
 HC-HC-0.097487     0   -9.24919800   -4.17135900   -5.28405000 L
 HC-HC-0.086883     0   -7.10161700  -12.06858600    2.35668600 L
 HC-HC-0.086883     0   -5.96891100   -7.95198400    4.43597200 L
 HC-HC-0.086883     0   -9.45387300   -4.12915700  -10.25199200 L
 HC-HC-0.086883     0  -11.23228000   -1.31442000   -8.38412400 L
 HC-HC-0.086883     0   -8.72914100  -12.54064600    1.84575300 L
 HC-HC-0.086883     0   -7.12836600   -7.14738000    5.58350600 L
 HC-HC-0.086883     0   -9.47022000   -5.89806100  -10.78792300 L
 HC-HC-0.086883     0   -9.88758700   -0.43916500   -7.58788100 L
 HC-HC-0.086883     0   -8.44723600  -11.22288500    3.08493400 L
 HC-HC-0.086883     0   -7.37319200   -8.75614800    4.90063600 L
 HC-HC-0.086883     0  -10.90811300   -5.11305700  -10.18875000 L
 HC-HC-0.086883     0  -11.61900800   -0.12573100   -7.15756400 L
 HC-HC-0.092382     0  -10.16161100   -0.57174200   -4.97386700 L
 HC-HC-0.092382     0   -8.68767600   -0.98711700   -5.80433300 L
 HC-HC-0.100472     0  -13.72898100   -3.65784900   -6.40111300 L
 HC-HC-0.100472     0  -12.92416500   -2.97492400   -7.74800900 L
 HC-HC-0.100472     0  -12.57028400   -5.07725300   -8.76284400 L
 HC-HC-0.100472     0  -12.57243500   -6.44796900   -7.60560100 L
 HC-HC-0.098688     0  -10.71643400   -7.24492300   -7.71970900 L
 HC-HC-0.098688     0  -11.15037000   -7.02467900   -9.32094300 L
 HC-HC-0.092382     0   -7.53399100   -5.36197400   -8.79021300 L
 HC-HC-0.092382     0   -8.25201300   -6.92726100   -9.25116000 L
 HC-HC-0.098688     0  -12.85537200   -1.54480800   -6.13691900 L
 HC-HC-0.098688     0  -12.06772800   -2.59545200   -4.91425000 L
 HC-HC-0.098688     0   -9.60122700   -6.04863300    3.28417800 L
 HC-HC-0.098688     0   -9.53117200   -9.95283000   -0.50384700 L
 HC-HC-0.098688     0   -9.26356400   -6.63130100    4.83248600 L
 HC-HC-0.098688     0   -9.91442400  -11.44276200    0.41922900 L
 HC-HC-0.092382     0   -7.02804100  -12.11453000   -0.00326600 L
 HC-HC-0.092382     0   -7.08059100   -5.10975200    3.69958500 L
 HC-HC-0.092382     0   -6.02774100  -10.80513900    0.58381700 L
 HC-HC-0.092382     0   -5.88766900   -6.14229000    3.03187200 L
 HC-HC-0.100472     0  -11.22882100   -9.62318600    0.95048700 L
 HC-HC-0.100472     0  -11.17636000   -7.67528800    3.47744200 L
 HC-HC-0.100472     0  -10.55739800  -10.40083800    2.36273900 L
 HC-HC-0.100472     0  -10.11546700   -8.82130800    4.09358100 L
 HC-HC-0.061293     0  -10.58757400   -6.03600200   -5.66250300 L
 HC-HC-0.061293     0  -11.61577700   -4.87056300   -4.68759600 L
 HC-HC-0.061293     0   -9.65847700   -6.39096300    1.26506300 L
 HC-HC-0.061293     0  -11.08718500   -7.44839800    0.92129600 L
 HC-HC-0.061293     0  -12.40567500   -6.08593100   -5.50499300 L
 HC-HC-0.061293     0   -9.57936500   -7.60789300   -0.01679600 L
 Pd-M2-0.063035   0   -7.67500200   -8.77542900    2.02121800 L
 Pd-M2-0.063035   0   11.06794000   -7.40228500    1.55539900 L
 N-Z2-0.077769    0   10.02796500   -1.24556800   -7.57926600 L
 N-Z2-0.077769    0   12.71009500   -6.12539700    1.41785700 L
 N-Z3--0.003486   0    7.83932900   -2.77800500   -8.89525100 L
 N-Z4--0.003486   0    8.46498000    0.71471100   -6.45425200 L
 N-Z3--0.003486   0   12.25158300   -8.72158000    0.28228900 L
 N-Z4--0.003486   0   10.43894100   -5.95254000    3.15669500 L
 C-CT--0.064353   0   10.64108400   -2.03019900   -6.46565800 L
 C-CT--0.064353   0   12.49043800   -5.03100400    0.44791600 L
 C-CT--0.090978   0   10.24616300   -1.91745900   -8.92793500 L
 C-CT--0.090978   0   10.55828700    0.12126200   -7.54255700 L
 C-CT--0.090978   0   13.83896000   -7.01973700    1.16967200 L
 C-CT--0.090978   0   12.82623900   -5.47338700    2.73414500 L
 C-CT--0.047515   0    9.17112300   -3.16869700   -9.16552500 L
 C-CT--0.047515   0    9.95933900    0.85504800   -6.28096400 L
 C-CT--0.047515   0   13.42612000   -7.93074200   -0.01845300 L
 C-CT--0.047515   0   11.46676800   -4.88910100    3.23163000 L
 C-CT--0.082007   0    7.33507500   -2.00699100  -10.12904500 L
 C-CT--0.082007   0    7.71389100    1.78790900   -7.28961200 L
 C-CT--0.082007   0   12.67838200   -9.89761100    1.01089900 L
 C-CT--0.082007   0   10.34265200   -6.69816600    4.47239200 L
 C-CT--0.087715   0    6.97252100   -3.87002300   -8.49843100 L
 C-CT--0.087715   0    7.94354000    0.80102500   -5.10169200 L
 C-CT--0.087715   0   11.47832600   -9.10181800   -0.87844700 L
 C-CT--0.087715   0    9.06429400   -5.31700300    2.86598100 L
 C-CA-0.023472    0    7.51151100   -4.79866000   -7.36420800 L
 C-CA-0.023472    0    8.33570000   -0.26910900   -4.01019500 L
 C-CA-0.023472    0   10.96788700   -8.12035500   -1.95563400 L
 C-CA-0.023472    0    8.83950100   -4.34277500    1.76762500 L
 C-CD--0.105503   0    8.07274900   -6.06523700   -7.65547500 L
 C-CD--0.105503   0    7.43117500   -1.37688800   -3.99573500 L
 C-CD--0.105503   0   11.65106500   -7.85787200   -3.16221100 L
 C-CD--0.105503   0    8.96972100   -4.79505800    0.47833600 L
 C-CD--0.100707   0    8.76271500   -6.75042200   -6.69139400 L
 C-CD--0.100707   0    7.37427600   -2.18560900   -2.72642100 L
 C-CD--0.100707   0   10.97594400   -7.28122200   -4.35122500 L
 C-CD--0.100707   0    8.84462100   -3.95841800   -0.62032300 L
 C-CA-0.006078    0    9.03064500   -6.21737300   -5.38065400 L
 C-CA-0.006078    0    8.27038100   -1.78093000   -1.62693800 L
 C-CA-0.006078    0    9.72407300   -6.85766500   -4.22970000 L
 C-CA-0.006078    0    8.35558600   -2.63915400   -0.39490500 L
 C-CD--0.100707   0    8.53142000   -4.87250100   -5.17539600 L
 C-CD--0.100707   0    9.28449800   -0.77801400   -1.91133900 L
 C-CD--0.100707   0    9.03132700   -7.05826600   -2.98382900 L
 C-CD--0.100707   0    8.22393200   -2.17765200    0.95250400 L
 C-CD--0.105503   0    7.79174900   -4.20284700   -6.18720800 L
 C-CD--0.105503   0    9.28371300   -0.02139200   -3.09361700 L
 C-CD--0.105503   0    9.59458000   -7.79072900   -1.93614500 L
 C-CD--0.105503   0    8.46650300   -3.01171800    2.01138000 L
 HC-HC-0.097487     0   12.58631500   -8.40762800   -3.19299100 L
 HC-HC-0.097487     0    9.34590400   -5.79770400    0.29616100 L
 HC-HC-0.097487     0    6.70294600   -1.48684900   -4.79439400 L
 HC-HC-0.097487     0    7.99268300   -6.52541000   -8.63545600 L
 HC-HC-0.111671     0   11.51296600   -7.13545600   -5.28328000 L
 HC-HC-0.111671     0    9.00695000   -4.23031800   -1.65871400 L
 HC-HC-0.111671     0    6.53138000   -2.85809400   -2.59182100 L
 HC-HC-0.111671     0    9.09709500   -7.77595600   -6.82248500 L
 HC-HC-0.111671     0    8.09385500   -6.58725300   -2.69966400 L
 HC-HC-0.111671     0    7.99355900   -1.13229300    1.13374100 L
 HC-HC-0.111671     0    9.96058300   -0.48451800   -1.11376000 L
 HC-HC-0.111671     0    8.65649900   -4.39048800   -4.20996700 L
 HC-HC-0.097487     0    8.94372500   -8.10671100   -1.12611600 L
 HC-HC-0.097487     0    8.19370200   -2.76195200    3.03319500 L
 HC-HC-0.097487     0   10.03498100    0.76292400   -3.08603700 L
 HC-HC-0.097487     0    7.48841000   -3.19468600   -5.92398200 L
 HC-HC-0.086883     0   10.13093000   -5.94772100    5.24410400 L
 HC-HC-0.086883     0   13.01268300  -10.59558900    0.23435500 L
 HC-HC-0.086883     0    6.64621300    1.89551200   -7.06256500 L
 HC-HC-0.086883     0    7.67681900   -0.96528200  -10.15469700 L
 HC-HC-0.086883     0   11.24350600   -7.20576800    4.83829000 L
 HC-HC-0.086883     0   13.41844200   -9.78668600    1.81303500 L
 HC-HC-0.086883     0    8.17791800    2.76676900   -7.11949900 L
 HC-HC-0.086883     0    6.23794500   -2.00692500  -10.11567400 L
 HC-HC-0.086883     0    9.54121200   -7.44326400    4.41012300 L
 HC-HC-0.086883     0   11.85268100  -10.50472300    1.39961100 L
 HC-HC-0.086883     0    7.70701000    1.49014300   -8.34557600 L
 HC-HC-0.086883     0    7.49964100   -2.40466100  -11.13735000 L
 HC-HC-0.092382     0    6.53513700   -4.51346900   -9.27163700 L
 HC-HC-0.092382     0    6.08490800   -3.36187200   -8.10201400 L
 HC-HC-0.100472     0   11.21267400   -2.42513800   -9.03416300 L
 HC-HC-0.100472     0   10.19329600   -1.07687200   -9.63244100 L
 HC-HC-0.100472     0   10.52620500    0.79415800   -8.40881900 L
 HC-HC-0.100472     0   11.63907500    0.21950500   -7.38519100 L
 HC-HC-0.098688     0   10.39483900    0.36214700   -5.40414700 L
 HC-HC-0.098688     0   10.16683300    1.93196100   -6.31453400 L
 HC-HC-0.092382     0    6.86314200    0.98357400   -5.05198600 L
 HC-HC-0.092382     0    8.22496500    1.72525200   -4.58273900 L
 HC-HC-0.098688     0    9.41594700   -3.44539000  -10.19857300 L
 HC-HC-0.098688     0    9.61486900   -3.88559500   -8.46381300 L
 HC-HC-0.098688     0   13.29487500   -7.17735900   -0.80512600 L
 HC-HC-0.098688     0   11.09758100   -4.00756000    2.69279100 L
 HC-HC-0.098688     0   14.32980400   -8.45771300   -0.34729400 L
 HC-HC-0.098688     0   11.68979300   -4.50328600    4.23409300 L
 HC-HC-0.092382     0    8.60333600   -4.87917400    3.75927400 L
 HC-HC-0.092382     0   12.11224900   -9.74609800   -1.49873000 L
 HC-HC-0.092382     0    8.42668800   -6.16184800    2.57585000 L
 HC-HC-0.092382     0   10.66654600   -9.80070800   -0.64455200 L
 HC-HC-0.100472     0   13.63123500   -4.72818000    2.70175100 L
 HC-HC-0.100472     0   14.84545200   -6.61075900    1.02015400 L
 HC-HC-0.100472     0   13.18195600   -6.12368800    3.54237300 L
 HC-HC-0.100472     0   13.98732700   -7.67136100    2.03930200 L
 HC-HC-0.061293     0   10.26827000   -3.05882600   -6.54727000 L
 HC-HC-0.061293     0   11.71735400   -1.85652900   -6.34457600 L
 HC-HC-0.061293     0   11.69716400   -4.32642400    0.72865200 L
 HC-HC-0.061293     0   12.18482600   -5.42979100   -0.52705000 L
 HC-HC-0.061293     0   10.21391600   -1.60261800   -5.55077300 L
 HC-HC-0.061293     0   13.42007500   -4.49587300    0.21955700 L
 Pd-M2-0.063035   0    8.06604300   -1.25245100   -7.26814700 L
 Pd-M2-0.063035   0   10.54489100    3.05751300    5.58417800 L
 N-Z2-0.077769    0    9.14068700    8.17928900   -3.50829500 L
 N-Z2-0.077769    0   12.01918300    3.60341900    4.32070800 L
 N-Z3--0.003486   0    6.78566300    7.19458700   -4.64532700 L
 N-Z4--0.003486   0    8.02823300   10.56017200   -2.39487700 L
 N-Z3--0.003486   0   10.65922700    1.23982600    4.26511500 L
 N-Z4--0.003486   0   11.08995000    4.61402600    6.90781400 L
 C-CT--0.064353   0    9.43147400    7.28768300   -2.32519900 L
 C-CT--0.064353   0   11.37924100    4.62344100    3.32665400 L
 C-CT--0.090978   0    9.15847100    7.45875000   -4.87565100 L
 C-CT--0.090978   0    9.99164900    9.42611800   -3.52049600 L
 C-CT--0.090978   0   12.74767600    2.49541900    3.68304000 L
 C-CT--0.090978   0   12.92540800    4.36822700    5.28432800 L
 C-CT--0.047515   0    7.99557200    6.42480500   -4.84743400 L
 C-CT--0.047515   0    9.53841400   10.35212000   -2.37653700 L
 C-CT--0.047515   0   11.58460600    1.57052400    3.14301300 L
 C-CT--0.047515   0   12.21512800    5.38284100    6.23097600 L
 C-CT--0.082007   0    6.35431800    7.83191300   -6.00418800 L
 C-CT--0.082007   0    7.75581400   11.62668300   -3.37773300 L
 C-CT--0.082007   0   11.34957600    0.20062700    5.08319000 L
 C-CT--0.082007   0   11.48050700    3.88693600    8.11483500 L
 C-CT--0.087715   0    5.69719700    6.38436200   -4.07273000 L
 C-CT--0.087715   0    7.36400400   11.01891600   -1.11339700 L
 C-CT--0.087715   0    9.27362700    0.82564300    3.74813500 L
 C-CT--0.087715   0    9.89693300    5.43048400    7.15973100 L
 C-CA-0.023472    0    6.10217800    5.52649400   -2.87800600 L
 C-CA-0.023472    0    7.77854000   10.34077300    0.19288600 L
 C-CD-0.023472    0    8.56877100    1.60689800    2.55418600 L
 C-CA-0.023472    0    9.39819100    6.47978700    6.09643600 L
 C-CD--0.105503   0    6.22136700    4.18541000   -3.03791400 L
 C-CD--0.105503   0    6.77139600    9.55994100    0.84242200 L
 C-CD--0.105503   0    7.83956000    2.81129700    2.73336000 L
 C-CD--0.105503   0    8.70636000    6.10990900    4.92323100 L
 C-CD--0.100707   0    6.89438300    3.43556100   -2.06382300 L
 C-CD--0.100707   0    7.08521100    8.96572000    2.07332400 L
 C-CD--0.100707   0    7.17182900    3.53236900    1.66384300 L
 C-CD--0.100707   0    8.37598700    7.10495300    4.04059300 L
 C-CA-0.006078    0    6.99634800    4.00659600   -0.76257000 L
 C-CA-0.006078    0    8.29071700    9.36602300    2.84340900 L
 C-CA-0.006078    0    7.50142100    3.20628600    0.36697900 L
 C-CA-0.006078    0    8.68903500    8.49946400    3.99678000 L
 C-CD--0.100707   0    6.83985400    5.41222900   -0.62646700 L
 C-CD--0.100707   0    9.31607200   10.13937900    2.12477600 L
 C-CD--0.100707   0    8.32913900    2.02074600    0.12809200 L
 C-CD--0.100707   0    9.49585400    8.87117200    5.17912300 L
 C-CD--0.105503   0    6.35150200    6.14117300   -1.66345100 L
 C-CD--0.105503   0    9.01453500   10.67503800    0.84904400 L
 C-CD--0.105503   0    8.95029800    1.25712200    1.22607500 L
 C-CD--0.105503   0    9.67253800    7.87070200    6.21290500 L